SimulationType                 MonteCarlo
NumberOfCycles                 50000
NumberOfInitializationCycles   50000
RemoveAtomNumberCodeFromLabel  yes

CutOff                         12
Movies yes
WriteMoviesEvery 5000

Framework                      0
FrameworkName 
UnitCells 
ExternalTemperature            298.0
ExternalPressure               10000.0
UseChargesFromCIFFile          yes

Component 0 MoleculeName      		   CO
            FugacityCoefficient		   1.0
            TranslationProbability         0.5
            RotationProbability            0.5
            ReinsertionProbability         0.5
            SwapProbability                0.5
            CreateNumberOfMolecules        0



